\ SCIP STATISTICS
\   Problem name     : clay0205m.zpl
\   Variables        : 81 (50 binary, 0 integer, 0 implicit integer, 31 continuous)
\   Constraints      : 136
\   Obj. scale       : 1
\   Obj. offset      : 0
Minimize
 Obj: +1 x81
Subject to
 e1_1: -300 x61 -240 x62 -210 x63 -50 x64 -100 x65 -150 x66 -30 x67 -120 x68 -25 x69 -60 x70 -300 x71
  -240 x72 -210 x73 -50 x74 -100 x75 -150 x76 -30 x77 -120 x78 -25 x79 -60 x80 +1 x81 = +0
 e2_1: -1 x1 +1 x2 +1 x61 >= +0
 e3_1: -1 x1 +1 x3 +1 x62 >= +0
 e4_1: -1 x1 +1 x4 +1 x63 >= +0
 e5_1: -1 x1 +1 x5 +1 x64 >= +0
 e6_1: -1 x2 +1 x3 +1 x65 >= +0
 e7_1: -1 x2 +1 x4 +1 x66 >= +0
 e8_1: -1 x2 +1 x5 +1 x67 >= +0
 e9_1: -1 x3 +1 x4 +1 x68 >= +0
 e10_1: -1 x3 +1 x5 +1 x69 >= +0
 e11_1: -1 x4 +1 x5 +1 x70 >= +0
 e12_1: +1 x1 -1 x2 +1 x61 >= +0
 e13_1: +1 x1 -1 x3 +1 x62 >= +0
 e14_1: +1 x1 -1 x4 +1 x63 >= +0
 e15_1: +1 x1 -1 x5 +1 x64 >= +0
 e16_1: +1 x2 -1 x3 +1 x65 >= +0
 e17_1: +1 x2 -1 x4 +1 x66 >= +0
 e18_1: +1 x2 -1 x5 +1 x67 >= +0
 e19_1: +1 x3 -1 x4 +1 x68 >= +0
 e20_1: +1 x3 -1 x5 +1 x69 >= +0
 e21_1: +1 x4 -1 x5 +1 x70 >= +0
 e22_1: -1 x6 +1 x7 +1 x71 >= +0
 e23_1: -1 x6 +1 x8 +1 x72 >= +0
 e24_1: -1 x6 +1 x9 +1 x73 >= +0
 e25_1: -1 x6 +1 x10 +1 x74 >= +0
 e26_1: -1 x7 +1 x8 +1 x75 >= +0
 e27_1: -1 x7 +1 x9 +1 x76 >= +0
 e28_1: -1 x7 +1 x10 +1 x77 >= +0
 e29_1: -1 x8 +1 x9 +1 x78 >= +0
 e30_1: -1 x8 +1 x10 +1 x79 >= +0
 e31_1: -1 x9 +1 x10 +1 x80 >= +0
 e32_1: +1 x6 -1 x7 +1 x71 >= +0
 e33_1: +1 x6 -1 x8 +1 x72 >= +0
 e34_1: +1 x6 -1 x9 +1 x73 >= +0
 e35_1: +1 x6 -1 x10 +1 x74 >= +0
 e36_1: +1 x7 -1 x8 +1 x75 >= +0
 e37_1: +1 x7 -1 x9 +1 x76 >= +0
 e38_1: +1 x7 -1 x10 +1 x77 >= +0
 e39_1: +1 x8 -1 x9 +1 x78 >= +0
 e40_1: +1 x8 -1 x10 +1 x79 >= +0
 e41_1: +1 x9 -1 x10 +1 x80 >= +0
 e42_1: +1 x1 -1 x2 +51 b11 <= +45
 e43_1: +1 x1 -1 x3 +51 b12 <= +47
 e44_1: +1 x1 -1 x4 +51 b13 <= +47.5
 e45_1: +1 x1 -1 x5 +51 b14 <= +44
 e46_1: +1 x2 -1 x3 +51 b15 <= +46
 e47_1: +1 x2 -1 x4 +51 b16 <= +46.5
 e48_1: +1 x2 -1 x5 +51 b17 <= +43
 e49_1: +1 x3 -1 x4 +51 b18 <= +48.5
 e50_1: +1 x3 -1 x5 +51 b19 <= +45
 e51_1: +1 x4 -1 x5 +51 b20 <= +45.5
 e52_1: -1 x1 +1 x2 +51 b21 <= +45
 e53_1: -1 x1 +1 x3 +51 b22 <= +47
 e54_1: -1 x1 +1 x4 +51 b23 <= +47.5
 e55_1: -1 x1 +1 x5 +51 b24 <= +44
 e56_1: -1 x2 +1 x3 +51 b25 <= +46
 e57_1: -1 x2 +1 x4 +51 b26 <= +46.5
 e58_1: -1 x2 +1 x5 +51 b27 <= +43
 e59_1: -1 x3 +1 x4 +51 b28 <= +48.5
 e60_1: -1 x3 +1 x5 +51 b29 <= +45
 e61_1: -1 x4 +1 x5 +51 b30 <= +45.5
 e62_1: +1 x6 -1 x7 +86 b31 <= +80.5
 e63_1: +1 x6 -1 x8 +86 b32 <= +81.5
 e64_1: +1 x6 -1 x9 +86 b33 <= +81.5
 e65_1: +1 x6 -1 x10 +86 b34 <= +79.5
 e66_1: +1 x7 -1 x8 +86 b35 <= +82
 e67_1: +1 x7 -1 x9 +86 b36 <= +82
 e68_1: +1 x7 -1 x10 +86 b37 <= +80
 e69_1: +1 x8 -1 x9 +86 b38 <= +83
 e70_1: +1 x8 -1 x10 +86 b39 <= +81
 e71_1: +1 x9 -1 x10 +86 b40 <= +81
 e72_1: -1 x6 +1 x7 +86 b41 <= +80.5
 e73_1: -1 x6 +1 x8 +86 b42 <= +81.5
 e74_1: -1 x6 +1 x9 +86 b43 <= +81.5
 e75_1: -1 x6 +1 x10 +86 b44 <= +79.5
 e76_1: -1 x7 +1 x8 +86 b45 <= +82
 e77_1: -1 x7 +1 x9 +86 b46 <= +82
 e78_1: -1 x7 +1 x10 +86 b47 <= +80
 e79_1: -1 x8 +1 x9 +86 b48 <= +83
 e80_1: -1 x8 +1 x10 +86 b49 <= +81
 e81_1: -1 x9 +1 x10 +86 b50 <= +81
 e82_1: +1 b11 +1 b21 +1 b31 +1 b41 = +1
 e83_1: +1 b12 +1 b22 +1 b32 +1 b42 = +1
 e84_1: +1 b13 +1 b23 +1 b33 +1 b43 = +1
 e85_1: +1 b14 +1 b24 +1 b34 +1 b44 = +1
 e86_1: +1 b15 +1 b25 +1 b35 +1 b45 = +1
 e87_1: +1 b16 +1 b26 +1 b36 +1 b46 = +1
 e88_1: +1 b17 +1 b27 +1 b37 +1 b47 = +1
 e89_1: +1 b18 +1 b28 +1 b38 +1 b48 = +1
 e90_1: +1 b19 +1 b29 +1 b39 +1 b49 = +1
 e91_1: +1 b20 +1 b30 +1 b40 +1 b50 = +1
 e92_1: +7964 b51 -35 x1 -14 x6 + [ +1 x1^2 +1 x6^2 ] <= +7644.75
 e93_1: +7808 b52 -37 x2 -15 x7 + [ +1 x2^2 +1 x7^2 ] <= +7445.5
 e94_1: +8128 b53 -33 x3 -17 x8 + [ +1 x3^2 +1 x8^2 ] <= +7819.5
 e95_1: +8213 b54 -32 x4 -17 x9 + [ +1 x4^2 +1 x9^2 ] <= +7920.75
 e96_1: +7660 b55 -39 x5 -13 x10 + [ +1 x5^2 +1 x10^2 ] <= +7273.5
 e97_1: +6481 b56 -105 x1 -154 x6 + [ +1 x1^2 +1 x6^2 ] <= -2104.25
 e98_1: +6622 b57 -107 x2 -155 x7 + [ +1 x2^2 +1 x7^2 ] <= -2146.5
 e99_1: +6951.25 b58 -103 x3 -157 x8 + [ +1 x3^2 +1 x8^2 ] <= -1763.25
 e100_1: +6910 b59 -102 x4 -157 x9 + [ +1 x4^2 +1 x9^2 ] <= -1753.25
 e101_1: +6342 b60 -109 x5 -153 x10 + [ +1 x5^2 +1 x10^2 ] <= -2380.5
 e102_1: +7040 b51 -35 x1 -26 x6 + [ +1 x1^2 +1 x6^2 ] <= +6600.75
 e103_1: +7033 b52 -37 x2 -25 x7 + [ +1 x2^2 +1 x7^2 ] <= +6570.5
 e104_1: +7657 b53 -33 x3 -23 x8 + [ +1 x3^2 +1 x8^2 ] <= +7288.5
 e105_1: +7742 b54 -32 x4 -23 x9 + [ +1 x4^2 +1 x9^2 ] <= +7389.75
 e106_1: +6589 b55 -39 x5 -27 x10 + [ +1 x5^2 +1 x10^2 ] <= +6062.5
 e107_1: +7357 b56 -105 x1 -166 x6 + [ +1 x1^2 +1 x6^2 ] <= -2188.25
 e108_1: +7357 b57 -107 x2 -165 x7 + [ +1 x2^2 +1 x7^2 ] <= -2211.5
 e109_1: +7398.25 b58 -103 x3 -163 x8 + [ +1 x3^2 +1 x8^2 ] <= -1796.25
 e110_1: +7357 b59 -102 x4 -163 x9 + [ +1 x4^2 +1 x9^2 ] <= -1786.25
 e111_1: +7357 b60 -109 x5 -167 x10 + [ +1 x5^2 +1 x10^2 ] <= -2485.5
 e112_1: +8389 b51 -25 x1 -14 x6 + [ +1 x1^2 +1 x6^2 ] <= +8219.75
 e113_1: +8389 b52 -23 x2 -15 x7 + [ +1 x2^2 +1 x7^2 ] <= +8236.5
 e114_1: +8389 b53 -27 x3 -17 x8 + [ +1 x3^2 +1 x8^2 ] <= +8170.5
 e115_1: +8389 b54 -28 x4 -17 x9 + [ +1 x4^2 +1 x9^2 ] <= +8156.75
 e116_1: +8389 b55 -21 x5 -13 x10 + [ +1 x5^2 +1 x10^2 ] <= +8272.5
 e117_1: +6096 b56 -95 x1 -154 x6 + [ +1 x1^2 +1 x6^2 ] <= -1989.25
 e118_1: +6097 b57 -93 x2 -155 x7 + [ +1 x2^2 +1 x7^2 ] <= -1971.5
 e119_1: +6711.25 b58 -97 x3 -157 x8 + [ +1 x3^2 +1 x8^2 ] <= -1703.25
 e120_1: +6750 b59 -98 x4 -157 x9 + [ +1 x4^2 +1 x9^2 ] <= -1713.25
 e121_1: +5685 b60 -91 x5 -153 x10 + [ +1 x5^2 +1 x10^2 ] <= -2137.5
 e122_1: +7465 b51 -25 x1 -26 x6 + [ +1 x1^2 +1 x6^2 ] <= +7175.75
 e123_1: +7614 b52 -23 x2 -25 x7 + [ +1 x2^2 +1 x7^2 ] <= +7361.5
 e124_1: +7918 b53 -27 x3 -23 x8 + [ +1 x3^2 +1 x8^2 ] <= +7639.5
 e125_1: +7918 b54 -28 x4 -23 x9 + [ +1 x4^2 +1 x9^2 ] <= +7625.75
 e126_1: +7318 b55 -21 x5 -27 x10 + [ +1 x5^2 +1 x10^2 ] <= +7061.5
 e127_1: +6972 b56 -95 x1 -166 x6 + [ +1 x1^2 +1 x6^2 ] <= -2073.25
 e128_1: +6832 b57 -93 x2 -165 x7 + [ +1 x2^2 +1 x7^2 ] <= -2036.5
 e129_1: +7158.25 b58 -97 x3 -163 x8 + [ +1 x3^2 +1 x8^2 ] <= -1736.25
 e130_1: +7197 b59 -98 x4 -163 x9 + [ +1 x4^2 +1 x9^2 ] <= -1746.25
 e131_1: +6700 b60 -91 x5 -167 x10 + [ +1 x5^2 +1 x10^2 ] <= -2242.5
 e132_1: +1 b51 +1 b56 = +1
 e133_1: +1 b52 +1 b57 = +1
 e134_1: +1 b53 +1 b58 = +1
 e135_1: +1 b54 +1 b59 = +1
 e136_1: +1 b55 +1 b60 = +1
Bounds
 0 <= b11 <= 1
 0 <= b12 <= 1
 0 <= b13 <= 1
 0 <= b14 <= 1
 0 <= b15 <= 1
 0 <= b16 <= 1
 0 <= b17 <= 1
 0 <= b18 <= 1
 0 <= b19 <= 1
 0 <= b20 <= 1
 0 <= b21 <= 1
 0 <= b22 <= 1
 0 <= b23 <= 1
 0 <= b24 <= 1
 0 <= b25 <= 1
 0 <= b26 <= 1
 0 <= b27 <= 1
 0 <= b28 <= 1
 0 <= b29 <= 1
 0 <= b30 <= 1
 0 <= b31 <= 1
 0 <= b32 <= 1
 0 <= b33 <= 1
 0 <= b34 <= 1
 0 <= b35 <= 1
 0 <= b36 <= 1
 0 <= b37 <= 1
 0 <= b38 <= 1
 0 <= b39 <= 1
 0 <= b40 <= 1
 0 <= b41 <= 1
 0 <= b42 <= 1
 0 <= b43 <= 1
 0 <= b44 <= 1
 0 <= b45 <= 1
 0 <= b46 <= 1
 0 <= b47 <= 1
 0 <= b48 <= 1
 0 <= b49 <= 1
 0 <= b50 <= 1
 0 <= b51 <= 1
 0 <= b52 <= 1
 0 <= b53 <= 1
 0 <= b54 <= 1
 0 <= b55 <= 1
 0 <= b56 <= 1
 0 <= b57 <= 1
 0 <= b58 <= 1
 0 <= b59 <= 1
 0 <= b60 <= 1
 11.5 <= x1 <= 57.5
 12.5 <= x2 <= 56.5
 10.5 <= x3 <= 58.5
 10 <= x4 <= 59
 13.5 <= x5 <= 55.5
 7 <= x6 <= 87
 6.5 <= x7 <= 87.5
 5.5 <= x8 <= 88.5
 5.5 <= x9 <= 88.5
 7.5 <= x10 <= 86.5
 x81 free
Binaries
 b11 b12 b13 b14 b15 b16 b17 b18 b19 b20 b21 b22 b23 b24 b25 b26 b27 b28 b29 b30 b31 b32 b33 b34 b35 b36
 b37 b38 b39 b40 b41 b42 b43 b44 b45 b46 b47 b48 b49 b50 b51 b52 b53 b54 b55 b56 b57 b58 b59 b60
End
